num_features = 16;
num_usage_limits = 2;
num_plans = 3;
num_addons = 0;

features = ["fastCompileServers","fastestCompileServers","realTimeTrackChanges","fullDocumentHistory","advancedReferenceSearch","gitIntegration","latexEditor","realTimeCollaboration","projects","templates","symbolPalette","githubIntegration","dropboxIntegration","mendeleyIntegration","zoteroIntegration","prioritySupport"];
usage_limits = ["maxCollaboratorsPerProject","compileTimeoutLimit"];
plans = ["FREE","STANDARD","PROFESSIONAL"];
addons = [];

plans_prices = [0,21,42];
addons_prices = [];

linked_features = array2d(USAGE_LIMITS, FEATURES, [
    % maxCollaboratorsPerProject
    0,0,0,0,0,0,0,0,1,0,0,0,0,0,0,0,
    % compileTimeoutLimit
    1,1,0,0,0,0,0,0,0,0,0,0,0,0,0,0
]);

plans_features = array2d(PLANS, FEATURES, [
    % FREE
    1,0,0,0,0,0,1,1,1,1,0,0,0,0,0,0,
    % STANDARD
    1,1,1,1,1,1,1,1,1,1,1,1,1,1,1,1,
    % PROFESSIONAL
    1,1,1,1,1,1,1,1,1,1,1,1,1,1,1,1
]);
plans_usage_limits = array2d(PLANS, USAGE_LIMITS, [
    % FREE
    1,20,
    % STANDARD
    11,240,
    % PROFESSIONAL
    100000000,240
]);

addons_features = array2d(ADDONS, FEATURES, [
]);
addons_usage_limits = array2d(ADDONS, USAGE_LIMITS, [
]);
addons_usage_limits_extensions = array2d(ADDONS, USAGE_LIMITS, [
]);
addons_available_for = array2d(ADDONS, PLANS, [
]);
addons_depends_on = array2d(ADDONS, ADDONS, [
]);
